NAME: random-47-20866
TYPE: TSP
COMMENT: size=47 seed=20866
DIMENSION: 96
EDGE_WEIGHT_TYPE: EUC_2D
NODE_COORD_SECTION
+0 862 266
-0 862 266
+1 328 56
-1 397 593
+2 740 553
-2 746 704
+3 386 885
-3 337 954
+4 594 794
-4 440 74
+5 381 844
-5 11 104
+6 528 860
-6 788 80
+7 696 853
-7 884 428
+8 420 692
-8 187 522
+9 414 433
-9 748 905
+10 784 805
-10 225 783
+11 692 318
-11 635 186
+12 574 580
-12 395 202
+13 361 312
-13 576 662
+14 687 426
-14 743 837
+15 480 787
-15 950 352
+16 877 69
-16 291 557
+17 376 892
-17 859 841
+18 603 909
-18 799 847
+19 360 61
-19 867 417
+20 959 499
-20 557 711
+21 670 878
-21 716 872
+22 28 688
-22 153 541
+23 702 89
-23 134 312
+24 150 816
-24 815 155
+25 349 141
-25 462 208
+26 713 612
-26 208 19
+27 907 417
-27 96 435
+28 733 408
-28 324 925
+29 521 501
-29 577 305
+30 154 699
-30 290 260
+31 750 571
-31 68 745
+32 418 717
-32 743 655
+33 20 80
-33 872 756
+34 601 126
-34 42 245
+35 429 701
-35 320 485
+36 957 877
-36 767 825
+37 890 325
-37 498 930
+38 307 558
-38 497 8
+39 253 77
-39 493 984
+40 881 369
-40 477 893
+41 84 746
-41 867 843
+42 766 477
-42 877 291
+43 177 660
-43 50 859
+44 140 801
-44 891 602
+45 839 183
-45 839 94
+46 643 733
-46 76 55
+47 825 306
-47 753 909
PRECEDENCE_SECTION
+0 -0
+1 -1
+2 -2
+3 -3
+4 -4
+5 -5
+6 -6
+7 -7
+8 -8
+9 -9
+10 -10
+11 -11
+12 -12
+13 -13
+14 -14
+15 -15
+16 -16
+17 -17
+18 -18
+19 -19
+20 -20
+21 -21
+22 -22
+23 -23
+24 -24
+25 -25
+26 -26
+27 -27
+28 -28
+29 -29
+30 -30
+31 -31
+32 -32
+33 -33
+34 -34
+35 -35
+36 -36
+37 -37
+38 -38
+39 -39
+40 -40
+41 -41
+42 -42
+43 -43
+44 -44
+45 -45
+46 -46
+47 -47
EOF
